373,365
373,429
187,143
803,808
911,913
771,868
698,754
155,77
443,482
790,880
477,478
393,442
457,502
289,203
117,67
539,597
339,251
481,448
829,850
494,523
174,93
606,661
526,453
948,943
210,160
991,966
839,848
565,512
771,733
697,600
797,770
732,747
407,439
952,980
553,456
935,955
632,575
189,121
191,192
902,820
289,274
531,489
552,503
121,162
258,239
34,2
235,150
353,258
82,154
31,110

75
10734
4238
1659
1251
3092
516
1183
343
320
